(set-info :smt-lib-version 2.6)
(set-logic QF_S)
(set-info :source |
Generated by: Oliver Markgraf, Hongjian Jiang, Daniel Stan, Anthony W. Lin, Philipp Ruemmer
Generated on: 2025-04-08
Application: Using String Solvers to solve RMC problems encoded as CHC over Strings
Target solver: cvc5, OSTRICH, Z3, Z3alpha, Z3-noodler
Time limit: 60.0
Benchmarks are extracted by running HornStr https://arg-git.informatik.uni-kl.de/pub/string-chc-lib on all benchmarks
provided in the repository and gathering the string queries sent to the string solvers.
|)
(set-info :license "https://creativecommons.org/licenses/by/4.0/")
(set-info :category "industrial")
(set-info :status unknown)
(declare-fun varout () String)
(assert (let ((a!1 (re.* (re.union (re.union (str.to_re "0") (str.to_re "1"))
                           (str.to_re "2")))))
  (str.in_re varout a!1)))
(declare-fun varin () String)
(assert (let ((a!1 (re.* (re.union (re.union (str.to_re "0") (str.to_re "1"))
                           (str.to_re "2")))))
  (str.in_re varin a!1)))
(declare-fun X () String)
(declare-fun isin () Bool)
(declare-fun isout () Bool)
(assert (let ((a!1 (re.++ (re.++ (re.* (str.to_re "0")) (str.to_re "01"))
                  (re.* (str.to_re "0")))))
  (or (and (str.in_re X a!1) true (= X varin) isin (not isout)))))
(assert (let ((a!1 (re.union (re.union (str.to_re "2")
                               (re.++ (str.to_re "0") (str.to_re "2")))
                     (re.++ (str.to_re "1")
                            (re.union (str.to_re "1") (str.to_re "2")))))
      (a!2 (re.* (re.union (re.union (str.to_re "0") (str.to_re "1"))
                           (str.to_re "2"))))
      (a!9 (re.++ (str.to_re "0")
                  (re.++ (re.* (str.to_re "0")) (str.to_re "1")))))
(let ((a!3 (re.++ (re.union (re.union (str.to_re "0") (str.to_re "1"))
                            (str.to_re "2"))
                  a!2))
      (a!10 (re.++ (re.++ (str.to_re "0") (str.to_re "0"))
                   (re.++ (re.* (str.to_re "0")) (re.union (str.to_re "1") a!9)))))
(let ((a!4 (re.++ a!1 (re.++ a!2 (re.union (str.to_re "") a!3))))
      (a!6 (re.++ (str.to_re "2") (re.++ a!2 (re.union (str.to_re "") a!3))))
      (a!11 (re.union (re.union (re.++ (str.to_re "0") (str.to_re "1"))
                                (re.++ (str.to_re "1") (str.to_re "0")))
                      a!10))
      (a!12 (re.++ (re.union (str.to_re "1") (str.to_re "2"))
                   (re.++ a!2 (re.union (str.to_re "") a!3)))))
(let ((a!5 (re.union (re.union (re.union (str.to_re "") (str.to_re "0"))
                               (str.to_re "1"))
                     a!4))
      (a!7 (re.++ (str.to_re "0") (re.++ (re.* (str.to_re "0")) a!6)))
      (a!13 (re.++ (str.to_re "0") (re.++ (re.* (str.to_re "0")) a!12))))
(let ((a!8 (re.++ (re.++ (str.to_re "0") (str.to_re "0"))
                  (re.++ (re.* (str.to_re "0")) (re.union a!6 a!7))))
      (a!14 (re.++ a!11 (re.++ (re.* (str.to_re "0")) (re.union a!12 a!13)))))
  (str.in_re varin (re.union (re.union a!5 a!8) a!14))))))))
(check-sat)
(exit)
